c ind 10 13 18 19 21 23 25 34 36 38 0
c ind 40 43 5 6 9 0
p cnf 68 195
-1 -2 11 0
-1 2 48 0
-11 -12 14 0
-11 12 26 0
-12 -13 9 0
-12 -9 13 0
-14 15 0
-14 24 0
-15 16 0
-15 22 0
-16 17 0
-16 20 0
-17 -18 19 0
-17 -19 18 0
-19 0
-2 3 7 0
-20 -19 21 0
-20 -21 19 0
-22 -19 23 0
-22 -23 19 0
-24 -19 25 0
-24 -25 19 0
-26 -27 29 0
-26 27 48 0
-27 28 0
-27 3 0
-28 -13 5 0
-28 -5 13 0
-29 -30 41 0
-29 30 55 0
-3 -4 0
-30 31 0
-30 39 0
-31 32 0
-31 37 0
-32 33 0
-32 35 0
-33 -19 34 0
-33 -34 19 0
-35 -19 36 0
-35 -36 19 0
-37 -19 38 0
-37 -38 19 0
-39 -19 40 0
-39 -40 19 0
-4 -5 6 0
-4 -6 5 0
-41 -42 44 0
-41 42 48 0
-42 -13 43 0
-42 -43 13 0
-44 24 0
-44 45 0
-45 22 0
-45 46 0
-46 20 0
-46 47 0
-47 -13 18 0
-47 -18 13 0
-48 49 0
-48 54 0
-49 50 0
-49 53 0
-50 51 0
-50 52 0
-51 -18 34 0
-51 -34 18 0
-52 -21 36 0
-52 -36 21 0
-53 -23 38 0
-53 -38 23 0
-54 -25 40 0
-54 -40 25 0
-55 -56 60 0
-55 56 64 0
-56 39 0
-56 57 0
-57 37 0
-57 58 0
-58 35 0
-58 59 0
-59 -13 34 0
-59 -34 13 0
-60 24 0
-60 61 0
-61 22 0
-61 62 0
-62 17 0
-62 63 0
-63 -13 21 0
-63 -21 13 0
-64 -65 14 0
-64 65 48 0
-65 39 0
-65 66 0
-66 37 0
-66 67 0
-67 33 0
-67 68 0
-68 -13 36 0
-68 -36 13 0
-7 -8 0
-8 -10 9 0
-8 -9 10 0
1 -11 -48 0
1 -2 -11 0
1 0
1 2 -48 0
11 -12 -14 0
11 -14 -26 0
11 12 -26 0
12 -9 -13 0
12 9 13 0
13 0
14 -15 -24 0
15 -16 -22 0
16 -17 -20 0
17 -18 -19 0
17 18 19 0
2 -3 0
2 -7 0
20 -21 -19 0
20 21 19 0
22 -23 -19 0
22 23 19 0
24 -25 -19 0
24 25 19 0
26 -27 -29 0
26 -29 -48 0
26 27 -48 0
27 -3 -28 0
28 -5 -13 0
28 5 13 0
29 -30 -41 0
29 -41 -55 0
29 30 -55 0
3 4 0
30 -31 -39 0
31 -32 -37 0
32 -33 -35 0
33 -34 -19 0
33 34 19 0
35 -36 -19 0
35 36 19 0
37 -38 -19 0
37 38 19 0
39 -40 -19 0
39 40 19 0
4 -5 -6 0
4 5 6 0
41 -42 -44 0
41 -44 -48 0
41 42 -48 0
42 -43 -13 0
42 43 13 0
44 -45 -24 0
45 -46 -22 0
46 -47 -20 0
47 -18 -13 0
47 18 13 0
48 -49 -54 0
49 -50 -53 0
50 -51 -52 0
51 -18 -34 0
51 18 34 0
52 -21 -36 0
52 21 36 0
53 -23 -38 0
53 23 38 0
54 -25 -40 0
54 25 40 0
55 -56 -60 0
55 -60 -64 0
55 56 -64 0
56 -57 -39 0
57 -58 -37 0
58 -59 -35 0
59 -34 -13 0
59 34 13 0
60 -61 -24 0
61 -62 -22 0
62 -17 -63 0
63 -21 -13 0
63 21 13 0
64 -14 -48 0
64 -65 -14 0
64 65 -48 0
65 -66 -39 0
66 -67 -37 0
67 -33 -68 0
68 -36 -13 0
68 36 13 0
7 8 0
8 -9 -10 0
8 9 10 0
